c generated by sgen
p cnf 77 164
-2 -3 -4 0
-1 -3 -4 0
-1 -2 -4 0
-1 -2 -3 0
-6 -7 -8 0
-5 -7 -8 0
-5 -6 -8 0
-5 -6 -7 0
-10 -11 -12 0
-9 -11 -12 0
-9 -10 -12 0
-9 -10 -11 0
-14 -15 -16 0
-13 -15 -16 0
-13 -14 -16 0
-13 -14 -15 0
-18 -19 -20 0
-17 -19 -20 0
-17 -18 -20 0
-17 -18 -19 0
-22 -23 -24 0
-21 -23 -24 0
-21 -22 -24 0
-21 -22 -23 0
-26 -27 -28 0
-25 -27 -28 0
-25 -26 -28 0
-25 -26 -27 0
-30 -31 -32 0
-29 -31 -32 0
-29 -30 -32 0
-29 -30 -31 0
-34 -35 -36 0
-33 -35 -36 0
-33 -34 -36 0
-33 -34 -35 0
-38 -39 -40 0
-37 -39 -40 0
-37 -38 -40 0
-37 -38 -39 0
-42 -43 -44 0
-41 -43 -44 0
-41 -42 -44 0
-41 -42 -43 0
-46 -47 -48 0
-45 -47 -48 0
-45 -46 -48 0
-45 -46 -47 0
-50 -51 -52 0
-49 -51 -52 0
-49 -50 -52 0
-49 -50 -51 0
-54 -55 -56 0
-53 -55 -56 0
-53 -54 -56 0
-53 -54 -55 0
-58 -59 -60 0
-57 -59 -60 0
-57 -58 -60 0
-57 -58 -59 0
-62 -63 -64 0
-61 -63 -64 0
-61 -62 -64 0
-61 -62 -63 0
-66 -67 -68 0
-65 -67 -68 0
-65 -66 -68 0
-65 -66 -67 0
-70 -71 -72 0
-69 -71 -72 0
-69 -70 -72 0
-69 -70 -71 0
-73 -74 -75 0
-73 -74 -76 0
-73 -74 -77 0
-73 -75 -76 0
-73 -75 -77 0
-73 -76 -77 0
-74 -75 -76 0
-74 -75 -77 0
-74 -76 -77 0
-75 -76 -77 0
7 36 25 0
15 36 25 0
15 7 25 0
15 7 36 0
13 29 39 0
18 29 39 0
18 13 39 0
18 13 29 0
44 9 37 0
2 9 37 0
2 44 37 0
2 44 9 0
17 26 41 0
70 26 41 0
70 17 41 0
70 17 26 0
54 42 60 0
5 42 60 0
5 54 60 0
5 54 42 0
16 65 1 0
56 65 1 0
56 16 1 0
56 16 65 0
21 14 43 0
75 14 43 0
75 21 43 0
75 21 14 0
62 67 45 0
38 67 45 0
38 62 45 0
38 62 67 0
59 66 12 0
33 66 12 0
33 59 12 0
33 59 66 0
6 68 48 0
30 68 48 0
30 6 48 0
30 6 68 0
77 8 3 0
63 8 3 0
63 77 3 0
63 77 8 0
40 69 35 0
74 69 35 0
74 40 35 0
74 40 69 0
53 24 27 0
64 24 27 0
64 53 27 0
64 53 24 0
58 19 76 0
47 19 76 0
47 58 76 0
47 58 19 0
28 52 10 0
73 52 10 0
73 28 10 0
73 28 52 0
20 50 4 0
34 50 4 0
34 20 4 0
34 20 50 0
22 32 72 0
11 32 72 0
11 22 72 0
11 22 32 0
51 31 57 0
61 31 57 0
61 51 57 0
61 51 31 0
46 49 71 0
46 49 55 0
46 49 23 0
46 71 55 0
46 71 23 0
46 55 23 0
49 71 55 0
49 71 23 0
49 55 23 0
71 55 23 0
